c read Graph
c width = 367
c time = 215 ms
c width = 27
c time = 493 ms
c width = 26
c time = 641 ms
c width = 25
c time = 2646 ms
c width = 24
c time = 3881 ms
c width = 24
c time = 4908 ms
s td 307 25 380
b 1 1 2 21
b 2 2 3 21 22
b 3 18 19 39 40
b 4 3 21 22 41
b 5 18 39 40 60
b 6 321 341 342 362
b 7 340 359 360 379
b 8 321 342 362 363
b 9 340 359 378 379
b 10 3 4 5 24
b 11 3 5 23 24 42 61
b 12 5 23 24 42 44 61 63
b 13 5 24 42 44 61 63 82
b 14 5 24 44 61 63 82 101
b 15 5 24 26 44 45 63 82 101
b 16 5 26 44 45 63 65 82 84 101
b 17 5 26 45 63 65 82 84 101 103
b 18 5 26 45 65 82 84 101 103 122
b 19 5 26 45 47 65 66 84 101 103 122
b 20 5 26 47 65 66 84 87 101 103 107 122 124 126 145
b 21 5 26 47 66 68 87 101 103 107 122 124 126 145
b 22 5 9 26 30 47 49 68 87 101 103 107 122 124 126 145
b 23 5 9 26 28 30 47 49 68
b 24 5 7 9 26 28 47
b 25 7 26 27 28 47
b 26 7 8 9 28
b 27 5 6 7 26
b 28 9 28 29 30 49
b 29 28 47 48 49 68
b 30 9 30 49 68 87 101 103 107 122 124 126 145 164 181 183 202
b 31 101 103 122 124 143 145 164 181 183 202
b 32 101 122 143 162 164 181 183 202
b 33 162 181 182 183 202
b 34 101 122 141 143 162 181
b 35 101 121 122 141
b 36 122 141 142 143 162
b 37 141 161 162 181
b 38 143 162 163 164 183
b 39 124 143 144 145 164
b 40 103 122 123 124 143
b 41 9 30 49 51 68 72 87 93 107 112 126 128 129 131 145 150 164 181 183 202
b 42 30 49 51 68 72 87 93 107 110 112 128 129 131 150
b 43 30 49 51 68 72 87 89 93 107 110 112 128 129 131
b 44 68 87 89 107 108 110 128 129
b 45 68 87 88 89 108
b 46 89 108 109 110 129
b 47 30 49 51 68 72 89 91 93 110 112 131
b 48 72 91 92 93 112
b 49 30 49 51 68 70 72 89 91 110
b 50 30 49 50 51 70
b 51 49 68 69 70 89
b 52 70 89 90 91 110
b 53 51 70 71 72 91
b 54 91 110 111 112 131
b 55 110 129 130 131 150
b 56 9 30 51 72 93 107 112 126 128 129 131 145 150 164 170 181 183 185 189 202 206 208 227
b 57 9 30 51 72 93 112 131 150 164 170 181 183 185 189 202 206 208 227 248 269 290 311 332 353 374
b 58 9 30 51 72 93 112 131 150 170 189 208 210 227 231 248 252 269 273 290 292 311 332 353 374
b 59 189 208 210 227 231 248 252 269 273 290 292 311 332 353 374
b 60 189 208 210 227 231 248 250 252 269 273 290 292 311
b 61 231 250 252 269 271 273 290 292 311
b 62 231 250 251 252 271
b 63 252 271 272 273 292
b 64 250 269 270 271 290
b 65 271 290 291 292 311
b 66 189 208 210 227 229 231 248 250 269
b 67 210 229 230 231 250
b 68 229 248 249 250 269
b 69 208 227 228 229 248
b 70 189 208 209 210 229
b 71 164 181 183 185 202 206 225 227 244 248 261 263 269 282 290 311 332 353 374
b 72 206 225 227 244 248 261 263 269 282 288 290 307 311 328 332 349 353 370 374
b 73 206 225 227 244 248 261 263 265 269 282 286 288 307 328 349 370
b 74 206 225 227 244 248 265 267 269 286 288 307
b 75 267 286 287 288 307
b 76 206 225 227 244 246 248 265 267 286
b 77 225 244 245 246 265
b 78 227 246 247 248 267
b 79 246 265 266 267 286
b 80 206 225 226 227 246
b 81 248 267 268 269 288
b 82 244 261 263 265 282 286 307 326 328 345 349 366 370
b 83 307 326 328 345 347 349 366 370
b 84 326 345 346 347 366
b 85 328 347 349 366 368 370
b 86 349 368 369 370
b 87 328 347 348 349 368
b 88 347 366 367 368
b 89 307 326 327 328 347
b 90 244 261 263 265 282 286 305 307 326 345 366
b 91 244 261 263 265 282 284 286 305 326 345 366
b 92 265 284 285 286 305
b 93 261 263 282 284 305 324 326 345 366
b 94 261 263 282 284 303 305 324 345 366
b 95 263 282 283 284 303
b 96 284 303 304 305 324
b 97 261 282 303 324 345 364 366
b 98 345 364 365 366
b 99 261 282 301 303 324 345 364
b 100 261 281 282 301
b 101 282 301 303 324 343 345 364
b 102 324 343 344 345 364
b 103 282 301 303 322 324 343 364
b 104 301 322 343 363 364
b 105 301 321 322 343 363
b 106 321 322 342 343 363
b 107 282 301 302 303 322
b 108 303 322 323 324 343
b 109 305 324 325 326 345
b 110 244 263 264 265 284
b 111 286 305 306 307 326
b 112 269 288 290 307 311 328 330 332 349 353 370 374
b 113 269 288 290 307 309 311 328 330 349
b 114 288 307 308 309 328
b 115 290 309 310 311 330
b 116 269 288 289 290 309
b 117 309 328 329 330 349
b 118 311 330 332 349 351 353 370 374
b 119 332 351 353 370 372 374
b 120 351 370 371 372
b 121 353 372 373 374
b 122 332 351 352 353 372
b 123 330 349 350 351 370
b 124 311 330 331 332 351
b 125 164 181 183 185 202 206 223 225 244 261 263 282
b 126 164 183 185 202 204 206 223 225 244
b 127 183 202 203 204 223
b 128 164 183 184 185 204
b 129 204 223 224 225 244
b 130 185 204 205 206 225
b 131 181 202 223 242 244 261 263 282
b 132 242 261 262 263 282
b 133 223 242 243 244 263
b 134 181 202 221 223 242 261
b 135 181 201 202 221
b 136 202 221 222 223 242
b 137 221 241 242 261
b 138 107 126 128 129 145 150 164 170 185 187 189 206 208 227
b 139 107 126 128 129 145 150 164 168 170 185 187 189 206 208
b 140 107 126 128 129 145 147 150 164 168 170 185 187 189 206
b 141 126 145 147 164 166 168 185 187 206
b 142 166 185 186 187 206
b 143 145 164 165 166 185
b 144 126 145 146 147 166
b 145 147 166 167 168 187
b 146 107 126 127 128 147
b 147 128 129 147 149 150 168 170 189
b 148 149 168 169 170 189
b 149 128 147 148 149 168
b 150 168 187 188 189 208
b 151 187 206 207 208 227
b 152 47 66 67 68 87
b 153 65 66 84 87 103 105 107 124 126 145
b 154 84 103 104 105 124
b 155 105 124 125 126 145
b 156 65 66 84 86 87 105 107 126
b 157 65 84 85 86 105
b 158 86 105 106 107 126
b 159 26 45 46 47 66
b 160 82 101 102 103 122
b 161 63 82 83 84 103
b 162 44 63 64 65 84
b 163 5 24 25 26 45
b 164 61 81 82 101
b 165 42 61 62 63 82
b 166 23 42 43 44 63
b 167 3 23 41 42 61
b 168 3 22 23 41 42
b 169 170 189 190 191 210
b 170 53 72 73 74 93
b 171 233 252 253 254 273
b 172 9 13 30 32 34 51 53 72
b 173 9 13 30 34 51 53 55 72 74 93
b 174 93 112 114 131 135 150 156 170 175 191 192 194 212 213
b 175 9 30 51 72 93 112 131 150 170 189 191 210 231 252 273 292 311 332 353 374
b 176 9 30 51 72 93 112 131 150 170 191 210 212 231 252 273 292 311 332 353 374
b 177 9 30 51 72 93 112 131 150 170 191 212 231 233 252 273 292 311 332 353 374
b 178 9 30 51 72 93 112 131 150 170 191 212 233 252 254 273 292 311 332 353 374
b 179 9 13 30 34 51 55 72 74 93 99 114 118 120 135 137 156
b 180 9 30 51 72 93 99 114 118 120 135 137 156 177 179 198 200
b 181 156 175 177 179 194 198 200 213 217 233 236 254 255 273 292 311 332 353 374
b 182 9 30 51 72 93 112 114 131 135 150 156 170 175 191 194 212 213 233 254 273 292 311 332 353 374
b 183 9 30 51 72 93 114 135 156 175 177 179 194 198 200 213 233 254 273 292 311 332 353 374
b 184 9 30 51 72 93 114 135 156 175 194 212 213 233 254 273 292 311 332 353 374
b 185 99 118 120 137 156 158 177 179 198 200
b 186 137 156 157 158 177
b 187 158 177 178 179 198
b 188 99 118 120 137 139 158 179 200
b 189 118 137 138 139 158
b 190 99 118 119 120 139
b 191 120 139 158 160 179 200
b 192 120 139 140 160
b 193 160 179 180 200
b 194 139 158 159 160 179
b 195 93 112 114 131 135 150 156 170 173 175 191 192 194 213
b 196 173 192 193 194 213
b 197 93 112 114 131 135 150 152 156 170 173 175 191 192 194
b 198 131 150 152 170 171 173 191 192
b 199 131 150 151 152 171
b 200 152 171 172 173 192
b 201 93 112 114 131 135 152 154 156 173 175 194
b 202 135 154 155 156 175
b 203 154 173 174 175 194
b 204 93 112 114 131 133 135 152 154 173
b 205 93 112 113 114 133
b 206 112 131 132 133 152
b 207 114 133 134 135 154
b 208 133 152 153 154 173
b 209 191 210 211 212 231
b 210 212 231 232 233 252
b 211 13 34 55 74 76 93 97 99 114 118 120 135 137 156
b 212 13 17 34 36 55 76 97 99 118 120
b 213 13 15 17 34 36 55
b 214 13 14 15 34
b 215 15 34 35 36 55
b 216 15 16 17 36
b 217 17 36 55 76 78 97 99 118 120
b 218 17 36 55 57 76 78 97 99 120
b 219 57 76 77 78 97
b 220 36 55 56 57 76
b 221 17 36 57 78 80 99 120
b 222 80 99 100 120
b 223 17 36 57 59 78 80 99
b 224 59 78 79 80 99
b 225 17 36 38 57 59 78 80
b 226 17 36 37 38 57
b 227 17 38 59 60 80
b 228 17 18 38 59 60
b 229 18 38 39 59 60
b 230 38 57 58 59 78
b 231 78 97 98 99 118
b 232 55 74 76 93 97 114 116 118 135 137 156
b 233 97 116 117 118 137
b 234 55 74 76 93 95 97 114 116 135
b 235 95 114 115 116 135
b 236 76 95 96 97 116
b 237 55 74 75 76 95
b 238 74 93 94 95 114
b 239 116 135 136 137 156
b 240 34 53 54 55 74
b 241 32 51 52 53 72
b 242 9 11 13 30 32 51
b 243 9 10 11 30
b 244 11 30 31 32 51
b 245 11 12 13 32
b 246 13 32 33 34 53
b 247 156 175 177 194 198 213 215 217 233 236 254 255
b 248 156 175 177 194 196 198 215 217 236
b 249 156 175 176 177 196
b 250 175 194 195 196 215
b 251 177 196 197 198 217
b 252 196 215 216 217 236
b 253 194 213 215 233 234 236 254 255
b 254 194 213 214 215 234
b 255 215 234 235 236 255
b 256 179 198 200 217 236 254 255 259 273 275 278 280 292 296 297 311 332 353 374
b 257 179 198 200 217 236 238 255 259 275 278 280 296 297
b 258 179 198 200 217 219 238 259 280
b 259 179 198 199 200 219
b 260 200 219 238 240 259 280
b 261 200 219 220 240
b 262 240 259 260 280
b 263 219 238 239 240 259
b 264 198 217 218 219 238
b 265 217 236 238 255 257 259 275 278 296 297
b 266 238 257 258 259 278
b 267 236 255 257 275 276 278 296 297
b 268 257 276 277 278 297
b 269 236 255 256 257 276
b 270 217 236 237 238 257
b 271 254 259 273 275 278 280 292 296 297 311 315 332 334 353 374
b 272 254 273 275 292 294 296 311 315 332 334 353
b 273 254 273 274 275 294
b 274 275 294 295 296 315
b 275 273 292 294 311 313 315 332 334 353
b 276 273 292 293 294 313
b 277 294 313 314 315 334
b 278 313 332 333 334 353
b 279 292 311 312 313 332
b 280 259 278 280 296 297 315 334 353 355 374
b 281 334 353 354 355 374
b 282 259 278 280 296 297 315 334 336 355 374
b 283 315 334 335 336 355
b 284 259 278 280 296 297 315 317 336 355 374
b 285 259 278 280 297 299 317 336 355 374
b 286 259 278 279 280 299
b 287 278 280 297 299 317 318 336 355 374
b 288 278 297 298 299 318
b 289 280 299 317 318 336 355 374 376
b 290 280 299 317 318 336 355 357 376
b 291 336 355 356 357 376
b 292 280 299 317 318 336 338 357 376
b 293 317 336 337 338 357
b 294 280 299 318 320 338 357 376
b 295 280 299 300 320
b 296 299 318 320 338 339 357 376
b 297 299 318 319 320 339
b 298 320 338 339 357 376 378
b 299 357 376 377 378
b 300 320 338 339 357 358 378
b 301 320 339 340 358 378
b 302 339 340 358 359 378
b 303 355 374 375 376
b 304 296 315 316 317 336
b 305 360 379 380
b 306 341 361 362
b 307 19 20 40
1 2
2 4
3 307
3 5
4 168
5 229
6 306
6 8
7 305
7 9
8 106
9 302
10 11
11 167
11 12
12 166
12 13
13 165
13 14
14 164
14 15
15 163
15 16
16 162
16 17
17 161
17 18
18 160
18 19
19 159
19 20
20 153
20 21
21 152
21 22
22 30
22 23
23 28
23 29
23 24
24 27
24 26
24 25
30 41
30 31
31 40
31 39
31 32
32 33
32 38
32 34
34 35
34 37
34 36
41 56
41 42
42 43
42 55
43 44
43 47
44 45
44 46
47 48
47 54
47 49
49 50
49 51
49 53
49 52
56 138
56 57
57 71
57 58
58 175
58 60
58 59
60 66
60 61
61 62
61 63
61 64
61 65
66 67
66 68
66 69
66 70
71 125
71 72
72 73
72 112
73 74
73 82
74 75
74 81
74 76
76 77
76 80
76 79
76 78
82 83
82 90
83 84
83 89
83 85
85 88
85 86
85 87
90 111
90 91
91 110
91 92
91 93
93 109
93 94
94 95
94 96
94 97
97 98
97 99
99 100
99 101
101 102
101 103
103 104
103 107
103 108
104 105
105 106
112 113
112 118
113 114
113 116
113 117
113 115
118 123
118 124
118 119
119 120
119 121
119 122
125 131
125 126
126 127
126 128
126 129
126 130
131 133
131 134
131 132
134 135
134 137
134 136
138 151
138 139
139 140
139 150
140 146
140 147
140 141
141 143
141 144
141 145
141 142
147 149
147 148
153 154
153 155
153 156
156 157
156 158
167 168
169 175
170 173
171 178
172 246
172 241
172 242
172 173
173 240
173 179
174 195
174 182
175 176
176 209
176 177
177 210
177 178
178 182
179 211
179 180
180 185
180 183
181 256
181 247
181 183
182 184
183 184
185 187
185 188
185 186
188 190
188 191
188 189
191 192
191 193
191 194
195 196
195 197
197 201
197 198
198 200
198 199
201 202
201 203
201 204
204 205
204 206
204 207
204 208
211 212
211 232
212 213
212 217
213 214
213 216
213 215
217 231
217 218
218 220
218 219
218 221
221 222
221 223
223 224
223 225
225 227
225 226
225 230
227 228
228 229
232 233
232 239
232 234
234 237
234 238
234 236
234 235
242 243
242 245
242 244
247 253
247 248
248 249
248 250
248 251
248 252
253 254
253 255
256 257
256 271
257 258
257 265
258 259
258 264
258 260
260 261
260 262
260 263
265 270
265 266
265 267
267 269
267 268
271 280
271 272
272 273
272 274
272 275
275 279
275 276
275 278
275 277
280 281
280 282
282 283
282 284
284 304
284 285
285 286
285 287
287 288
287 289
289 303
289 290
290 291
290 292
292 293
292 294
294 295
294 296
296 297
296 298
298 299
298 300
300 301
301 302
